/*********************************************
 * OPL 20.1.0.0 Data
 * Author: anton
 * Creation Date: 20 dic 2022 at 12:02:23
 *********************************************/

 componenti = {c1, c2, c3};
 
 olii = {Super, Premium, Extra};
 
 costo = [11, 9, 10];
 
 quantita = [10, 13, 15];
 
 vendita = [25, 15, 20];